water_flow/jikken/120202_dat1.lp
\* Problem: WFmodel_120202 *\

Maximize
 Objective: + 10 WG(1) + 11 WG(2) + 10 BG(1) + 11 BG(2)

Subject To
 C1_1(0): + WB(0) + WG(0) - AVE(0) = -0
 C1_1(1): + WB(1) + WG(1) - AVE(1) = -0
 C1_1(2): + WB(2) + WG(2) - AVE(2) = -0
 C1_2(0): + AVE(0) = -0
 C1_2(1): + AVE(1) = 1153.024373585
 C1_2(2): + AVE(2) = 1153.179235705
 C2_1_1_1(0,0): - 0.98 WG(0) - 0.98 BG(0) + 1000000 d11(0,0) <= 1000000
 C2_1_1_1(1,1): - 0.98 WG(1) - 0.98 BG(1) + 1000000 d11(1,1)
 <= 999896.75
 C2_1_1_1(1,2): - 0.98 WG(1) - 0.98 BG(1) + 1000000 d11(1,2)
 <= 998466.755
 C2_1_1_1(1,3): - 0.98 WG(1) - 0.98 BG(1) + 1000000 d11(1,3)
 <= 991739.44
 C2_1_1_1(1,4): - 0.98 WG(1) - 0.98 BG(1) + 1000000 d11(1,4)
 <= 986338.87
 C2_1_1_1(2,5): - 0.98 WG(2) - 0.98 BG(2) + 1000000 d11(2,5)
 <= 999896.75
 C2_1_1_1(2,6): - 0.98 WG(2) - 0.98 BG(2) + 1000000 d11(2,6)
 <= 998466.755
 C2_1_1_1(2,7): - 0.98 WG(2) - 0.98 BG(2) + 1000000 d11(2,7)
 <= 991739.44
 C2_1_1_1(2,8): - 0.98 WG(2) - 0.98 BG(2) + 1000000 d11(2,8)
 <= 986338.87
 C2_1_1_1(2,9): - 0.98 WG(2) - 0.98 BG(2) + 1000000 d11(2,9)
 <= 999896.75
 C2_1_1_1(2,10): - 0.98 WG(2) - 0.98 BG(2) + 1000000 d11(2,10)
 <= 998466.755
 C2_1_1_1(2,11): - 0.98 WG(2) - 0.98 BG(2) + 1000000 d11(2,11)
 <= 991739.44
 C2_1_1_1(2,12): - 0.98 WG(2) - 0.98 BG(2) + 1000000 d11(2,12)
 <= 986338.87
 C2_1_1_1(2,13): - 0.98 WG(2) - 0.98 BG(2) + 1000000 d11(2,13)
 <= 999896.75
 C2_1_1_1(2,14): - 0.98 WG(2) - 0.98 BG(2) + 1000000 d11(2,14)
 <= 998466.755
 C2_1_1_1(2,15): - 0.98 WG(2) - 0.98 BG(2) + 1000000 d11(2,15)
 <= 991739.44
 C2_1_1_1(2,16): - 0.98 WG(2) - 0.98 BG(2) + 1000000 d11(2,16)
 <= 986338.87
 C2_1_1_1(2,17): - 0.98 WG(2) - 0.98 BG(2) + 1000000 d11(2,17)
 <= 999896.75
 C2_1_1_1(2,18): - 0.98 WG(2) - 0.98 BG(2) + 1000000 d11(2,18)
 <= 998466.755
 C2_1_1_1(2,19): - 0.98 WG(2) - 0.98 BG(2) + 1000000 d11(2,19)
 <= 991739.44
 C2_1_1_1(2,20): - 0.98 WG(2) - 0.98 BG(2) + 1000000 d11(2,20)
 <= 986338.87
 C2_1_1_2(0,0): + 0.98 WG(0) + 0.98 BG(0) - 1000000 d11(0,0) <= -0
 C2_1_1_2(1,1): + 0.98 WG(1) + 0.98 BG(1) - 1000000 d11(1,1) <= 103.25
 C2_1_1_2(1,2): + 0.98 WG(1) + 0.98 BG(1) - 1000000 d11(1,2) <= 1533.245
 C2_1_1_2(1,3): + 0.98 WG(1) + 0.98 BG(1) - 1000000 d11(1,3) <= 8260.56
 C2_1_1_2(1,4): + 0.98 WG(1) + 0.98 BG(1) - 1000000 d11(1,4) <= 13661.13
 C2_1_1_2(2,5): + 0.98 WG(2) + 0.98 BG(2) - 1000000 d11(2,5) <= 103.25
 C2_1_1_2(2,6): + 0.98 WG(2) + 0.98 BG(2) - 1000000 d11(2,6) <= 1533.245
 C2_1_1_2(2,7): + 0.98 WG(2) + 0.98 BG(2) - 1000000 d11(2,7) <= 8260.56
 C2_1_1_2(2,8): + 0.98 WG(2) + 0.98 BG(2) - 1000000 d11(2,8) <= 13661.13
 C2_1_1_2(2,9): + 0.98 WG(2) + 0.98 BG(2) - 1000000 d11(2,9) <= 103.25
 C2_1_1_2(2,10): + 0.98 WG(2) + 0.98 BG(2) - 1000000 d11(2,10)
 <= 1533.245
 C2_1_1_2(2,11): + 0.98 WG(2) + 0.98 BG(2) - 1000000 d11(2,11)
 <= 8260.56
 C2_1_1_2(2,12): + 0.98 WG(2) + 0.98 BG(2) - 1000000 d11(2,12)
 <= 13661.13
 C2_1_1_2(2,13): + 0.98 WG(2) + 0.98 BG(2) - 1000000 d11(2,13) <= 103.25
 C2_1_1_2(2,14): + 0.98 WG(2) + 0.98 BG(2) - 1000000 d11(2,14)
 <= 1533.245
 C2_1_1_2(2,15): + 0.98 WG(2) + 0.98 BG(2) - 1000000 d11(2,15)
 <= 8260.56
 C2_1_1_2(2,16): + 0.98 WG(2) + 0.98 BG(2) - 1000000 d11(2,16)
 <= 13661.13
 C2_1_1_2(2,17): + 0.98 WG(2) + 0.98 BG(2) - 1000000 d11(2,17) <= 103.25
 C2_1_1_2(2,18): + 0.98 WG(2) + 0.98 BG(2) - 1000000 d11(2,18)
 <= 1533.245
 C2_1_1_2(2,19): + 0.98 WG(2) + 0.98 BG(2) - 1000000 d11(2,19)
 <= 8260.56
 C2_1_1_2(2,20): + 0.98 WG(2) + 0.98 BG(2) - 1000000 d11(2,20)
 <= 13661.13
 C2_1_2_1(0,0): + 0.98 WG(0) + 0.98 BG(0) + 1000000 d11(0,0) - y1(0,0)
 <= 1000000
 C2_1_2_1(1,1): + 0.98 WG(1) + 0.98 BG(1) + 1000000 d11(1,1) - y1(1,1)
 <= 1000103.25
 C2_1_2_1(1,2): + 0.98 WG(1) + 0.98 BG(1) + 1000000 d11(1,2) - y1(1,2)
 <= 1001533.245
 C2_1_2_1(1,3): + 0.98 WG(1) + 0.98 BG(1) + 1000000 d11(1,3) - y1(1,3)
 <= 1008260.56
 C2_1_2_1(1,4): + 0.98 WG(1) + 0.98 BG(1) + 1000000 d11(1,4) - y1(1,4)
 <= 1013661.13
 C2_1_2_1(2,5): + 0.98 WG(2) + 0.98 BG(2) + 1000000 d11(2,5) - y1(2,5)
 <= 1000103.25
 C2_1_2_1(2,6): + 0.98 WG(2) + 0.98 BG(2) + 1000000 d11(2,6) - y1(2,6)
 <= 1001533.245
 C2_1_2_1(2,7): + 0.98 WG(2) + 0.98 BG(2) + 1000000 d11(2,7) - y1(2,7)
 <= 1008260.56
 C2_1_2_1(2,8): + 0.98 WG(2) + 0.98 BG(2) + 1000000 d11(2,8) - y1(2,8)
 <= 1013661.13
 C2_1_2_1(2,9): + 0.98 WG(2) + 0.98 BG(2) + 1000000 d11(2,9) - y1(2,9)
 <= 1000103.25
 C2_1_2_1(2,10): + 0.98 WG(2) + 0.98 BG(2) + 1000000 d11(2,10)
 - y1(2,10) <= 1001533.245
 C2_1_2_1(2,11): + 0.98 WG(2) + 0.98 BG(2) + 1000000 d11(2,11)
 - y1(2,11) <= 1008260.56
 C2_1_2_1(2,12): + 0.98 WG(2) + 0.98 BG(2) + 1000000 d11(2,12)
 - y1(2,12) <= 1013661.13
 C2_1_2_1(2,13): + 0.98 WG(2) + 0.98 BG(2) + 1000000 d11(2,13)
 - y1(2,13) <= 1000103.25
 C2_1_2_1(2,14): + 0.98 WG(2) + 0.98 BG(2) + 1000000 d11(2,14)
 - y1(2,14) <= 1001533.245
 C2_1_2_1(2,15): + 0.98 WG(2) + 0.98 BG(2) + 1000000 d11(2,15)
 - y1(2,15) <= 1008260.56
 C2_1_2_1(2,16): + 0.98 WG(2) + 0.98 BG(2) + 1000000 d11(2,16)
 - y1(2,16) <= 1013661.13
 C2_1_2_1(2,17): + 0.98 WG(2) + 0.98 BG(2) + 1000000 d11(2,17)
 - y1(2,17) <= 1000103.25
 C2_1_2_1(2,18): + 0.98 WG(2) + 0.98 BG(2) + 1000000 d11(2,18)
 - y1(2,18) <= 1001533.245
 C2_1_2_1(2,19): + 0.98 WG(2) + 0.98 BG(2) + 1000000 d11(2,19)
 - y1(2,19) <= 1008260.56
 C2_1_2_1(2,20): + 0.98 WG(2) + 0.98 BG(2) + 1000000 d11(2,20)
 - y1(2,20) <= 1013661.13
 C2_1_2_2(0,0): - 0.98 WG(0) - 0.98 BG(0) + 1000000 d11(0,0) + y1(0,0)
 <= 1000000
 C2_1_2_2(1,1): - 0.98 WG(1) - 0.98 BG(1) + 1000000 d11(1,1) + y1(1,1)
 <= 999896.75
 C2_1_2_2(1,2): - 0.98 WG(1) - 0.98 BG(1) + 1000000 d11(1,2) + y1(1,2)
 <= 998466.755
 C2_1_2_2(1,3): - 0.98 WG(1) - 0.98 BG(1) + 1000000 d11(1,3) + y1(1,3)
 <= 991739.44
 C2_1_2_2(1,4): - 0.98 WG(1) - 0.98 BG(1) + 1000000 d11(1,4) + y1(1,4)
 <= 986338.87
 C2_1_2_2(2,5): - 0.98 WG(2) - 0.98 BG(2) + 1000000 d11(2,5) + y1(2,5)
 <= 999896.75
 C2_1_2_2(2,6): - 0.98 WG(2) - 0.98 BG(2) + 1000000 d11(2,6) + y1(2,6)
 <= 998466.755
 C2_1_2_2(2,7): - 0.98 WG(2) - 0.98 BG(2) + 1000000 d11(2,7) + y1(2,7)
 <= 991739.44
 C2_1_2_2(2,8): - 0.98 WG(2) - 0.98 BG(2) + 1000000 d11(2,8) + y1(2,8)
 <= 986338.87
 C2_1_2_2(2,9): - 0.98 WG(2) - 0.98 BG(2) + 1000000 d11(2,9) + y1(2,9)
 <= 999896.75
 C2_1_2_2(2,10): - 0.98 WG(2) - 0.98 BG(2) + 1000000 d11(2,10)
 + y1(2,10) <= 998466.755
 C2_1_2_2(2,11): - 0.98 WG(2) - 0.98 BG(2) + 1000000 d11(2,11)
 + y1(2,11) <= 991739.44
 C2_1_2_2(2,12): - 0.98 WG(2) - 0.98 BG(2) + 1000000 d11(2,12)
 + y1(2,12) <= 986338.87
 C2_1_2_2(2,13): - 0.98 WG(2) - 0.98 BG(2) + 1000000 d11(2,13)
 + y1(2,13) <= 999896.75
 C2_1_2_2(2,14): - 0.98 WG(2) - 0.98 BG(2) + 1000000 d11(2,14)
 + y1(2,14) <= 998466.755
 C2_1_2_2(2,15): - 0.98 WG(2) - 0.98 BG(2) + 1000000 d11(2,15)
 + y1(2,15) <= 991739.44
 C2_1_2_2(2,16): - 0.98 WG(2) - 0.98 BG(2) + 1000000 d11(2,16)
 + y1(2,16) <= 986338.87
 C2_1_2_2(2,17): - 0.98 WG(2) - 0.98 BG(2) + 1000000 d11(2,17)
 + y1(2,17) <= 999896.75
 C2_1_2_2(2,18): - 0.98 WG(2) - 0.98 BG(2) + 1000000 d11(2,18)
 + y1(2,18) <= 998466.755
 C2_1_2_2(2,19): - 0.98 WG(2) - 0.98 BG(2) + 1000000 d11(2,19)
 + y1(2,19) <= 991739.44
 C2_1_2_2(2,20): - 0.98 WG(2) - 0.98 BG(2) + 1000000 d11(2,20)
 + y1(2,20) <= 986338.87
 C2_1_3_1(0,0): - 1000000 d11(0,0) - y1(0,0) <= -0
 C2_1_3_1(1,1): - 1000000 d11(1,1) - y1(1,1) <= -0
 C2_1_3_1(1,2): - 1000000 d11(1,2) - y1(1,2) <= -0
 C2_1_3_1(1,3): - 1000000 d11(1,3) - y1(1,3) <= -0
 C2_1_3_1(1,4): - 1000000 d11(1,4) - y1(1,4) <= -0
 C2_1_3_1(2,5): - 1000000 d11(2,5) - y1(2,5) <= -0
 C2_1_3_1(2,6): - 1000000 d11(2,6) - y1(2,6) <= -0
 C2_1_3_1(2,7): - 1000000 d11(2,7) - y1(2,7) <= -0
 C2_1_3_1(2,8): - 1000000 d11(2,8) - y1(2,8) <= -0
 C2_1_3_1(2,9): - 1000000 d11(2,9) - y1(2,9) <= -0
 C2_1_3_1(2,10): - 1000000 d11(2,10) - y1(2,10) <= -0
 C2_1_3_1(2,11): - 1000000 d11(2,11) - y1(2,11) <= -0
 C2_1_3_1(2,12): - 1000000 d11(2,12) - y1(2,12) <= -0
 C2_1_3_1(2,13): - 1000000 d11(2,13) - y1(2,13) <= -0
 C2_1_3_1(2,14): - 1000000 d11(2,14) - y1(2,14) <= -0
 C2_1_3_1(2,15): - 1000000 d11(2,15) - y1(2,15) <= -0
 C2_1_3_1(2,16): - 1000000 d11(2,16) - y1(2,16) <= -0
 C2_1_3_1(2,17): - 1000000 d11(2,17) - y1(2,17) <= -0
 C2_1_3_1(2,18): - 1000000 d11(2,18) - y1(2,18) <= -0
 C2_1_3_1(2,19): - 1000000 d11(2,19) - y1(2,19) <= -0
 C2_1_3_1(2,20): - 1000000 d11(2,20) - y1(2,20) <= -0
 C2_1_3_2(0,0): - 1000000 d11(0,0) + y1(0,0) <= -0
 C2_1_3_2(1,1): - 1000000 d11(1,1) + y1(1,1) <= -0
 C2_1_3_2(1,2): - 1000000 d11(1,2) + y1(1,2) <= -0
 C2_1_3_2(1,3): - 1000000 d11(1,3) + y1(1,3) <= -0
 C2_1_3_2(1,4): - 1000000 d11(1,4) + y1(1,4) <= -0
 C2_1_3_2(2,5): - 1000000 d11(2,5) + y1(2,5) <= -0
 C2_1_3_2(2,6): - 1000000 d11(2,6) + y1(2,6) <= -0
 C2_1_3_2(2,7): - 1000000 d11(2,7) + y1(2,7) <= -0
 C2_1_3_2(2,8): - 1000000 d11(2,8) + y1(2,8) <= -0
 C2_1_3_2(2,9): - 1000000 d11(2,9) + y1(2,9) <= -0
 C2_1_3_2(2,10): - 1000000 d11(2,10) + y1(2,10) <= -0
 C2_1_3_2(2,11): - 1000000 d11(2,11) + y1(2,11) <= -0
 C2_1_3_2(2,12): - 1000000 d11(2,12) + y1(2,12) <= -0
 C2_1_3_2(2,13): - 1000000 d11(2,13) + y1(2,13) <= -0
 C2_1_3_2(2,14): - 1000000 d11(2,14) + y1(2,14) <= -0
 C2_1_3_2(2,15): - 1000000 d11(2,15) + y1(2,15) <= -0
 C2_1_3_2(2,16): - 1000000 d11(2,16) + y1(2,16) <= -0
 C2_1_3_2(2,17): - 1000000 d11(2,17) + y1(2,17) <= -0
 C2_1_3_2(2,18): - 1000000 d11(2,18) + y1(2,18) <= -0
 C2_1_3_2(2,19): - 1000000 d11(2,19) + y1(2,19) <= -0
 C2_1_3_2(2,20): - 1000000 d11(2,20) + y1(2,20) <= -0
 C2_2_1_1(0,0): + 1.02 WG(0) + 1.02 BG(0) + 1000000 d12(0,0) <= 1000000
 C2_2_1_1(1,1): + 1.02 WG(1) + 1.02 BG(1) + 1000000 d12(1,1)
 <= 1000103.25
 C2_2_1_1(1,2): + 1.02 WG(1) + 1.02 BG(1) + 1000000 d12(1,2)
 <= 1001533.245
 C2_2_1_1(1,3): + 1.02 WG(1) + 1.02 BG(1) + 1000000 d12(1,3)
 <= 1008260.56
 C2_2_1_1(1,4): + 1.02 WG(1) + 1.02 BG(1) + 1000000 d12(1,4)
 <= 1013661.13
 C2_2_1_1(2,5): + 1.02 WG(2) + 1.02 BG(2) + 1000000 d12(2,5)
 <= 1000103.25
 C2_2_1_1(2,6): + 1.02 WG(2) + 1.02 BG(2) + 1000000 d12(2,6)
 <= 1001533.245
 C2_2_1_1(2,7): + 1.02 WG(2) + 1.02 BG(2) + 1000000 d12(2,7)
 <= 1008260.56
 C2_2_1_1(2,8): + 1.02 WG(2) + 1.02 BG(2) + 1000000 d12(2,8)
 <= 1013661.13
 C2_2_1_1(2,9): + 1.02 WG(2) + 1.02 BG(2) + 1000000 d12(2,9)
 <= 1000103.25
 C2_2_1_1(2,10): + 1.02 WG(2) + 1.02 BG(2) + 1000000 d12(2,10)
 <= 1001533.245
 C2_2_1_1(2,11): + 1.02 WG(2) + 1.02 BG(2) + 1000000 d12(2,11)
 <= 1008260.56
 C2_2_1_1(2,12): + 1.02 WG(2) + 1.02 BG(2) + 1000000 d12(2,12)
 <= 1013661.13
 C2_2_1_1(2,13): + 1.02 WG(2) + 1.02 BG(2) + 1000000 d12(2,13)
 <= 1000103.25
 C2_2_1_1(2,14): + 1.02 WG(2) + 1.02 BG(2) + 1000000 d12(2,14)
 <= 1001533.245
 C2_2_1_1(2,15): + 1.02 WG(2) + 1.02 BG(2) + 1000000 d12(2,15)
 <= 1008260.56
 C2_2_1_1(2,16): + 1.02 WG(2) + 1.02 BG(2) + 1000000 d12(2,16)
 <= 1013661.13
 C2_2_1_1(2,17): + 1.02 WG(2) + 1.02 BG(2) + 1000000 d12(2,17)
 <= 1000103.25
 C2_2_1_1(2,18): + 1.02 WG(2) + 1.02 BG(2) + 1000000 d12(2,18)
 <= 1001533.245
 C2_2_1_1(2,19): + 1.02 WG(2) + 1.02 BG(2) + 1000000 d12(2,19)
 <= 1008260.56
 C2_2_1_1(2,20): + 1.02 WG(2) + 1.02 BG(2) + 1000000 d12(2,20)
 <= 1013661.13
 C2_2_1_2(0,0): - 1.02 WG(0) - 1.02 BG(0) - 1000000 d12(0,0) <= -0
 C2_2_1_2(1,1): - 1.02 WG(1) - 1.02 BG(1) - 1000000 d12(1,1) <= -103.25
 C2_2_1_2(1,2): - 1.02 WG(1) - 1.02 BG(1) - 1000000 d12(1,2)
 <= -1533.245
 C2_2_1_2(1,3): - 1.02 WG(1) - 1.02 BG(1) - 1000000 d12(1,3) <= -8260.56
 C2_2_1_2(1,4): - 1.02 WG(1) - 1.02 BG(1) - 1000000 d12(1,4)
 <= -13661.13
 C2_2_1_2(2,5): - 1.02 WG(2) - 1.02 BG(2) - 1000000 d12(2,5) <= -103.25
 C2_2_1_2(2,6): - 1.02 WG(2) - 1.02 BG(2) - 1000000 d12(2,6)
 <= -1533.245
 C2_2_1_2(2,7): - 1.02 WG(2) - 1.02 BG(2) - 1000000 d12(2,7) <= -8260.56
 C2_2_1_2(2,8): - 1.02 WG(2) - 1.02 BG(2) - 1000000 d12(2,8)
 <= -13661.13
 C2_2_1_2(2,9): - 1.02 WG(2) - 1.02 BG(2) - 1000000 d12(2,9) <= -103.25
 C2_2_1_2(2,10): - 1.02 WG(2) - 1.02 BG(2) - 1000000 d12(2,10)
 <= -1533.245
 C2_2_1_2(2,11): - 1.02 WG(2) - 1.02 BG(2) - 1000000 d12(2,11)
 <= -8260.56
 C2_2_1_2(2,12): - 1.02 WG(2) - 1.02 BG(2) - 1000000 d12(2,12)
 <= -13661.13
 C2_2_1_2(2,13): - 1.02 WG(2) - 1.02 BG(2) - 1000000 d12(2,13)
 <= -103.25
 C2_2_1_2(2,14): - 1.02 WG(2) - 1.02 BG(2) - 1000000 d12(2,14)
 <= -1533.245
 C2_2_1_2(2,15): - 1.02 WG(2) - 1.02 BG(2) - 1000000 d12(2,15)
 <= -8260.56
 C2_2_1_2(2,16): - 1.02 WG(2) - 1.02 BG(2) - 1000000 d12(2,16)
 <= -13661.13
 C2_2_1_2(2,17): - 1.02 WG(2) - 1.02 BG(2) - 1000000 d12(2,17)
 <= -103.25
 C2_2_1_2(2,18): - 1.02 WG(2) - 1.02 BG(2) - 1000000 d12(2,18)
 <= -1533.245
 C2_2_1_2(2,19): - 1.02 WG(2) - 1.02 BG(2) - 1000000 d12(2,19)
 <= -8260.56
 C2_2_1_2(2,20): - 1.02 WG(2) - 1.02 BG(2) - 1000000 d12(2,20)
 <= -13661.13
 C2_2_2_1(0,0): - 1.02 WG(0) - 1.02 BG(0) + 1000000 d12(0,0) - y2(0,0)
 <= 1000000
 C2_2_2_1(1,1): - 1.02 WG(1) - 1.02 BG(1) + 1000000 d12(1,1) - y2(1,1)
 <= 999896.75
 C2_2_2_1(1,2): - 1.02 WG(1) - 1.02 BG(1) + 1000000 d12(1,2) - y2(1,2)
 <= 998466.755
 C2_2_2_1(1,3): - 1.02 WG(1) - 1.02 BG(1) + 1000000 d12(1,3) - y2(1,3)
 <= 991739.44
 C2_2_2_1(1,4): - 1.02 WG(1) - 1.02 BG(1) + 1000000 d12(1,4) - y2(1,4)
 <= 986338.87
 C2_2_2_1(2,5): - 1.02 WG(2) - 1.02 BG(2) + 1000000 d12(2,5) - y2(2,5)
 <= 999896.75
 C2_2_2_1(2,6): - 1.02 WG(2) - 1.02 BG(2) + 1000000 d12(2,6) - y2(2,6)
 <= 998466.755
 C2_2_2_1(2,7): - 1.02 WG(2) - 1.02 BG(2) + 1000000 d12(2,7) - y2(2,7)
 <= 991739.44
 C2_2_2_1(2,8): - 1.02 WG(2) - 1.02 BG(2) + 1000000 d12(2,8) - y2(2,8)
 <= 986338.87
 C2_2_2_1(2,9): - 1.02 WG(2) - 1.02 BG(2) + 1000000 d12(2,9) - y2(2,9)
 <= 999896.75
 C2_2_2_1(2,10): - 1.02 WG(2) - 1.02 BG(2) + 1000000 d12(2,10)
 - y2(2,10) <= 998466.755
 C2_2_2_1(2,11): - 1.02 WG(2) - 1.02 BG(2) + 1000000 d12(2,11)
 - y2(2,11) <= 991739.44
 C2_2_2_1(2,12): - 1.02 WG(2) - 1.02 BG(2) + 1000000 d12(2,12)
 - y2(2,12) <= 986338.87
 C2_2_2_1(2,13): - 1.02 WG(2) - 1.02 BG(2) + 1000000 d12(2,13)
 - y2(2,13) <= 999896.75
 C2_2_2_1(2,14): - 1.02 WG(2) - 1.02 BG(2) + 1000000 d12(2,14)
 - y2(2,14) <= 998466.755
 C2_2_2_1(2,15): - 1.02 WG(2) - 1.02 BG(2) + 1000000 d12(2,15)
 - y2(2,15) <= 991739.44
 C2_2_2_1(2,16): - 1.02 WG(2) - 1.02 BG(2) + 1000000 d12(2,16)
 - y2(2,16) <= 986338.87
 C2_2_2_1(2,17): - 1.02 WG(2) - 1.02 BG(2) + 1000000 d12(2,17)
 - y2(2,17) <= 999896.75
 C2_2_2_1(2,18): - 1.02 WG(2) - 1.02 BG(2) + 1000000 d12(2,18)
 - y2(2,18) <= 998466.755
 C2_2_2_1(2,19): - 1.02 WG(2) - 1.02 BG(2) + 1000000 d12(2,19)
 - y2(2,19) <= 991739.44
 C2_2_2_1(2,20): - 1.02 WG(2) - 1.02 BG(2) + 1000000 d12(2,20)
 - y2(2,20) <= 986338.87
 C2_2_2_2(0,0): + 1.02 WG(0) + 1.02 BG(0) + 1000000 d12(0,0) + y2(0,0)
 <= 1000000
 C2_2_2_2(1,1): + 1.02 WG(1) + 1.02 BG(1) + 1000000 d12(1,1) + y2(1,1)
 <= 1000103.25
 C2_2_2_2(1,2): + 1.02 WG(1) + 1.02 BG(1) + 1000000 d12(1,2) + y2(1,2)
 <= 1001533.245
 C2_2_2_2(1,3): + 1.02 WG(1) + 1.02 BG(1) + 1000000 d12(1,3) + y2(1,3)
 <= 1008260.56
 C2_2_2_2(1,4): + 1.02 WG(1) + 1.02 BG(1) + 1000000 d12(1,4) + y2(1,4)
 <= 1013661.13
 C2_2_2_2(2,5): + 1.02 WG(2) + 1.02 BG(2) + 1000000 d12(2,5) + y2(2,5)
 <= 1000103.25
 C2_2_2_2(2,6): + 1.02 WG(2) + 1.02 BG(2) + 1000000 d12(2,6) + y2(2,6)
 <= 1001533.245
 C2_2_2_2(2,7): + 1.02 WG(2) + 1.02 BG(2) + 1000000 d12(2,7) + y2(2,7)
 <= 1008260.56
 C2_2_2_2(2,8): + 1.02 WG(2) + 1.02 BG(2) + 1000000 d12(2,8) + y2(2,8)
 <= 1013661.13
 C2_2_2_2(2,9): + 1.02 WG(2) + 1.02 BG(2) + 1000000 d12(2,9) + y2(2,9)
 <= 1000103.25
 C2_2_2_2(2,10): + 1.02 WG(2) + 1.02 BG(2) + 1000000 d12(2,10)
 + y2(2,10) <= 1001533.245
 C2_2_2_2(2,11): + 1.02 WG(2) + 1.02 BG(2) + 1000000 d12(2,11)
 + y2(2,11) <= 1008260.56
 C2_2_2_2(2,12): + 1.02 WG(2) + 1.02 BG(2) + 1000000 d12(2,12)
 + y2(2,12) <= 1013661.13
 C2_2_2_2(2,13): + 1.02 WG(2) + 1.02 BG(2) + 1000000 d12(2,13)
 + y2(2,13) <= 1000103.25
 C2_2_2_2(2,14): + 1.02 WG(2) + 1.02 BG(2) + 1000000 d12(2,14)
 + y2(2,14) <= 1001533.245
 C2_2_2_2(2,15): + 1.02 WG(2) + 1.02 BG(2) + 1000000 d12(2,15)
 + y2(2,15) <= 1008260.56
 C2_2_2_2(2,16): + 1.02 WG(2) + 1.02 BG(2) + 1000000 d12(2,16)
 + y2(2,16) <= 1013661.13
 C2_2_2_2(2,17): + 1.02 WG(2) + 1.02 BG(2) + 1000000 d12(2,17)
 + y2(2,17) <= 1000103.25
 C2_2_2_2(2,18): + 1.02 WG(2) + 1.02 BG(2) + 1000000 d12(2,18)
 + y2(2,18) <= 1001533.245
 C2_2_2_2(2,19): + 1.02 WG(2) + 1.02 BG(2) + 1000000 d12(2,19)
 + y2(2,19) <= 1008260.56
 C2_2_2_2(2,20): + 1.02 WG(2) + 1.02 BG(2) + 1000000 d12(2,20)
 + y2(2,20) <= 1013661.13
 C2_2_3_1(0,0): - 1000000 d12(0,0) - y2(0,0) <= -0
 C2_2_3_1(1,1): - 1000000 d12(1,1) - y2(1,1) <= -0
 C2_2_3_1(1,2): - 1000000 d12(1,2) - y2(1,2) <= -0
 C2_2_3_1(1,3): - 1000000 d12(1,3) - y2(1,3) <= -0
 C2_2_3_1(1,4): - 1000000 d12(1,4) - y2(1,4) <= -0
 C2_2_3_1(2,5): - 1000000 d12(2,5) - y2(2,5) <= -0
 C2_2_3_1(2,6): - 1000000 d12(2,6) - y2(2,6) <= -0
 C2_2_3_1(2,7): - 1000000 d12(2,7) - y2(2,7) <= -0
 C2_2_3_1(2,8): - 1000000 d12(2,8) - y2(2,8) <= -0
 C2_2_3_1(2,9): - 1000000 d12(2,9) - y2(2,9) <= -0
 C2_2_3_1(2,10): - 1000000 d12(2,10) - y2(2,10) <= -0
 C2_2_3_1(2,11): - 1000000 d12(2,11) - y2(2,11) <= -0
 C2_2_3_1(2,12): - 1000000 d12(2,12) - y2(2,12) <= -0
 C2_2_3_1(2,13): - 1000000 d12(2,13) - y2(2,13) <= -0
 C2_2_3_1(2,14): - 1000000 d12(2,14) - y2(2,14) <= -0
 C2_2_3_1(2,15): - 1000000 d12(2,15) - y2(2,15) <= -0
 C2_2_3_1(2,16): - 1000000 d12(2,16) - y2(2,16) <= -0
 C2_2_3_1(2,17): - 1000000 d12(2,17) - y2(2,17) <= -0
 C2_2_3_1(2,18): - 1000000 d12(2,18) - y2(2,18) <= -0
 C2_2_3_1(2,19): - 1000000 d12(2,19) - y2(2,19) <= -0
 C2_2_3_1(2,20): - 1000000 d12(2,20) - y2(2,20) <= -0
 C2_2_3_2(0,0): - 1000000 d12(0,0) + y2(0,0) <= -0
 C2_2_3_2(1,1): - 1000000 d12(1,1) + y2(1,1) <= -0
 C2_2_3_2(1,2): - 1000000 d12(1,2) + y2(1,2) <= -0
 C2_2_3_2(1,3): - 1000000 d12(1,3) + y2(1,3) <= -0
 C2_2_3_2(1,4): - 1000000 d12(1,4) + y2(1,4) <= -0
 C2_2_3_2(2,5): - 1000000 d12(2,5) + y2(2,5) <= -0
 C2_2_3_2(2,6): - 1000000 d12(2,6) + y2(2,6) <= -0
 C2_2_3_2(2,7): - 1000000 d12(2,7) + y2(2,7) <= -0
 C2_2_3_2(2,8): - 1000000 d12(2,8) + y2(2,8) <= -0
 C2_2_3_2(2,9): - 1000000 d12(2,9) + y2(2,9) <= -0
 C2_2_3_2(2,10): - 1000000 d12(2,10) + y2(2,10) <= -0
 C2_2_3_2(2,11): - 1000000 d12(2,11) + y2(2,11) <= -0
 C2_2_3_2(2,12): - 1000000 d12(2,12) + y2(2,12) <= -0
 C2_2_3_2(2,13): - 1000000 d12(2,13) + y2(2,13) <= -0
 C2_2_3_2(2,14): - 1000000 d12(2,14) + y2(2,14) <= -0
 C2_2_3_2(2,15): - 1000000 d12(2,15) + y2(2,15) <= -0
 C2_2_3_2(2,16): - 1000000 d12(2,16) + y2(2,16) <= -0
 C2_2_3_2(2,17): - 1000000 d12(2,17) + y2(2,17) <= -0
 C2_2_3_2(2,18): - 1000000 d12(2,18) + y2(2,18) <= -0
 C2_2_3_2(2,19): - 1000000 d12(2,19) + y2(2,19) <= -0
 C2_2_3_2(2,20): - 1000000 d12(2,20) + y2(2,20) <= -0
 C3(1,1): + 1.11111111111111 y1(1,1) - 0.95 y2(1,1) + STE(1,1)
 - STE(0,0) = -0
 C3(1,2): + 1.11111111111111 y1(1,2) - 0.95 y2(1,2) - STE(0,0)
 + STE(1,2) = -0
 C3(1,3): + 1.11111111111111 y1(1,3) - 0.95 y2(1,3) - STE(0,0)
 + STE(1,3) = -0
 C3(1,4): + 1.11111111111111 y1(1,4) - 0.95 y2(1,4) - STE(0,0)
 + STE(1,4) = -0
 C3(2,5): + 1.11111111111111 y1(2,5) - 0.95 y2(2,5) - STE(1,1)
 + STE(2,5) = -0
 C3(2,6): + 1.11111111111111 y1(2,6) - 0.95 y2(2,6) - STE(1,1)
 + STE(2,6) = -0
 C3(2,7): + 1.11111111111111 y1(2,7) - 0.95 y2(2,7) - STE(1,1)
 + STE(2,7) = -0
 C3(2,8): + 1.11111111111111 y1(2,8) - 0.95 y2(2,8) - STE(1,1)
 + STE(2,8) = -0
 C3(2,9): + 1.11111111111111 y1(2,9) - 0.95 y2(2,9) - STE(1,2)
 + STE(2,9) = -0
 C3(2,10): + 1.11111111111111 y1(2,10) - 0.95 y2(2,10) - STE(1,2)
 + STE(2,10) = -0
 C3(2,11): + 1.11111111111111 y1(2,11) - 0.95 y2(2,11) - STE(1,2)
 + STE(2,11) = -0
 C3(2,12): + 1.11111111111111 y1(2,12) - 0.95 y2(2,12) - STE(1,2)
 + STE(2,12) = -0
 C3(2,13): + 1.11111111111111 y1(2,13) - 0.95 y2(2,13) - STE(1,3)
 + STE(2,13) = -0
 C3(2,14): + 1.11111111111111 y1(2,14) - 0.95 y2(2,14) - STE(1,3)
 + STE(2,14) = -0
 C3(2,15): + 1.11111111111111 y1(2,15) - 0.95 y2(2,15) - STE(1,3)
 + STE(2,15) = -0
 C3(2,16): + 1.11111111111111 y1(2,16) - 0.95 y2(2,16) - STE(1,3)
 + STE(2,16) = -0
 C3(2,17): + 1.11111111111111 y1(2,17) - 0.95 y2(2,17) - STE(1,4)
 + STE(2,17) = -0
 C3(2,18): + 1.11111111111111 y1(2,18) - 0.95 y2(2,18) - STE(1,4)
 + STE(2,18) = -0
 C3(2,19): + 1.11111111111111 y1(2,19) - 0.95 y2(2,19) - STE(1,4)
 + STE(2,19) = -0
 C3(2,20): + 1.11111111111111 y1(2,20) - 0.95 y2(2,20) - STE(1,4)
 + STE(2,20) = -0
 C4_1_1(0,0): + 1000000 d21(0,0) + STE(0,0) <= 1009450
 C4_1_1(1,1): + 1000000 d21(1,1) + STE(1,1) <= 1009450
 C4_1_1(1,2): + 1000000 d21(1,2) + STE(1,2) <= 1009450
 C4_1_1(1,3): + 1000000 d21(1,3) + STE(1,3) <= 1009450
 C4_1_1(1,4): + 1000000 d21(1,4) + STE(1,4) <= 1009450
 C4_1_1(2,5): + 1000000 d21(2,5) + STE(2,5) <= 1009450
 C4_1_1(2,6): + 1000000 d21(2,6) + STE(2,6) <= 1009450
 C4_1_1(2,7): + 1000000 d21(2,7) + STE(2,7) <= 1009450
 C4_1_1(2,8): + 1000000 d21(2,8) + STE(2,8) <= 1009450
 C4_1_1(2,9): + 1000000 d21(2,9) + STE(2,9) <= 1009450
 C4_1_1(2,10): + 1000000 d21(2,10) + STE(2,10) <= 1009450
 C4_1_1(2,11): + 1000000 d21(2,11) + STE(2,11) <= 1009450
 C4_1_1(2,12): + 1000000 d21(2,12) + STE(2,12) <= 1009450
 C4_1_1(2,13): + 1000000 d21(2,13) + STE(2,13) <= 1009450
 C4_1_1(2,14): + 1000000 d21(2,14) + STE(2,14) <= 1009450
 C4_1_1(2,15): + 1000000 d21(2,15) + STE(2,15) <= 1009450
 C4_1_1(2,16): + 1000000 d21(2,16) + STE(2,16) <= 1009450
 C4_1_1(2,17): + 1000000 d21(2,17) + STE(2,17) <= 1009450
 C4_1_1(2,18): + 1000000 d21(2,18) + STE(2,18) <= 1009450
 C4_1_1(2,19): + 1000000 d21(2,19) + STE(2,19) <= 1009450
 C4_1_1(2,20): + 1000000 d21(2,20) + STE(2,20) <= 1009450
 C4_1_2(0,0): - 1000000 d21(0,0) - STE(0,0) <= -9450
 C4_1_2(1,1): - 1000000 d21(1,1) - STE(1,1) <= -9450
 C4_1_2(1,2): - 1000000 d21(1,2) - STE(1,2) <= -9450
 C4_1_2(1,3): - 1000000 d21(1,3) - STE(1,3) <= -9450
 C4_1_2(1,4): - 1000000 d21(1,4) - STE(1,4) <= -9450
 C4_1_2(2,5): - 1000000 d21(2,5) - STE(2,5) <= -9450
 C4_1_2(2,6): - 1000000 d21(2,6) - STE(2,6) <= -9450
 C4_1_2(2,7): - 1000000 d21(2,7) - STE(2,7) <= -9450
 C4_1_2(2,8): - 1000000 d21(2,8) - STE(2,8) <= -9450
 C4_1_2(2,9): - 1000000 d21(2,9) - STE(2,9) <= -9450
 C4_1_2(2,10): - 1000000 d21(2,10) - STE(2,10) <= -9450
 C4_1_2(2,11): - 1000000 d21(2,11) - STE(2,11) <= -9450
 C4_1_2(2,12): - 1000000 d21(2,12) - STE(2,12) <= -9450
 C4_1_2(2,13): - 1000000 d21(2,13) - STE(2,13) <= -9450
 C4_1_2(2,14): - 1000000 d21(2,14) - STE(2,14) <= -9450
 C4_1_2(2,15): - 1000000 d21(2,15) - STE(2,15) <= -9450
 C4_1_2(2,16): - 1000000 d21(2,16) - STE(2,16) <= -9450
 C4_1_2(2,17): - 1000000 d21(2,17) - STE(2,17) <= -9450
 C4_1_2(2,18): - 1000000 d21(2,18) - STE(2,18) <= -9450
 C4_1_2(2,19): - 1000000 d21(2,19) - STE(2,19) <= -9450
 C4_1_2(2,20): - 1000000 d21(2,20) - STE(2,20) <= -9450
 C4_2_1(0,0): + 1000000 d22(0,0) - STE(0,0) <= 977950
 C4_2_1(1,1): + 1000000 d22(1,1) - STE(1,1) <= 977950
 C4_2_1(1,2): + 1000000 d22(1,2) - STE(1,2) <= 977950
 C4_2_1(1,3): + 1000000 d22(1,3) - STE(1,3) <= 977950
 C4_2_1(1,4): + 1000000 d22(1,4) - STE(1,4) <= 977950
 C4_2_1(2,5): + 1000000 d22(2,5) - STE(2,5) <= 977950
 C4_2_1(2,6): + 1000000 d22(2,6) - STE(2,6) <= 977950
 C4_2_1(2,7): + 1000000 d22(2,7) - STE(2,7) <= 977950
 C4_2_1(2,8): + 1000000 d22(2,8) - STE(2,8) <= 977950
 C4_2_1(2,9): + 1000000 d22(2,9) - STE(2,9) <= 977950
 C4_2_1(2,10): + 1000000 d22(2,10) - STE(2,10) <= 977950
 C4_2_1(2,11): + 1000000 d22(2,11) - STE(2,11) <= 977950
 C4_2_1(2,12): + 1000000 d22(2,12) - STE(2,12) <= 977950
 C4_2_1(2,13): + 1000000 d22(2,13) - STE(2,13) <= 977950
 C4_2_1(2,14): + 1000000 d22(2,14) - STE(2,14) <= 977950
 C4_2_1(2,15): + 1000000 d22(2,15) - STE(2,15) <= 977950
 C4_2_1(2,16): + 1000000 d22(2,16) - STE(2,16) <= 977950
 C4_2_1(2,17): + 1000000 d22(2,17) - STE(2,17) <= 977950
 C4_2_1(2,18): + 1000000 d22(2,18) - STE(2,18) <= 977950
 C4_2_1(2,19): + 1000000 d22(2,19) - STE(2,19) <= 977950
 C4_2_1(2,20): + 1000000 d22(2,20) - STE(2,20) <= 977950
 C4_2_2(0,0): - 1000000 d22(0,0) + STE(0,0) <= 22050
 C4_2_2(1,1): - 1000000 d22(1,1) + STE(1,1) <= 22050
 C4_2_2(1,2): - 1000000 d22(1,2) + STE(1,2) <= 22050
 C4_2_2(1,3): - 1000000 d22(1,3) + STE(1,3) <= 22050
 C4_2_2(1,4): - 1000000 d22(1,4) + STE(1,4) <= 22050
 C4_2_2(2,5): - 1000000 d22(2,5) + STE(2,5) <= 22050
 C4_2_2(2,6): - 1000000 d22(2,6) + STE(2,6) <= 22050
 C4_2_2(2,7): - 1000000 d22(2,7) + STE(2,7) <= 22050
 C4_2_2(2,8): - 1000000 d22(2,8) + STE(2,8) <= 22050
 C4_2_2(2,9): - 1000000 d22(2,9) + STE(2,9) <= 22050
 C4_2_2(2,10): - 1000000 d22(2,10) + STE(2,10) <= 22050
 C4_2_2(2,11): - 1000000 d22(2,11) + STE(2,11) <= 22050
 C4_2_2(2,12): - 1000000 d22(2,12) + STE(2,12) <= 22050
 C4_2_2(2,13): - 1000000 d22(2,13) + STE(2,13) <= 22050
 C4_2_2(2,14): - 1000000 d22(2,14) + STE(2,14) <= 22050
 C4_2_2(2,15): - 1000000 d22(2,15) + STE(2,15) <= 22050
 C4_2_2(2,16): - 1000000 d22(2,16) + STE(2,16) <= 22050
 C4_2_2(2,17): - 1000000 d22(2,17) + STE(2,17) <= 22050
 C4_2_2(2,18): - 1000000 d22(2,18) + STE(2,18) <= 22050
 C4_2_2(2,19): - 1000000 d22(2,19) + STE(2,19) <= 22050
 C4_2_2(2,20): - 1000000 d22(2,20) + STE(2,20) <= 22050
 C5_1(0): + d21(0,0) <= 0.6
 C5_1(1): + 0.546751 d21(1,1) + 0.396849 d21(1,2) + 0.05229 d21(1,3)
 + 0.004111 d21(1,4) <= 0.6
 C5_1(2): + 0.453933 d21(2,5) + 0.091905 d21(2,6) + 0.000913 d21(2,7)
 + 0.092362 d21(2,9) + 0.285535 d21(2,10) + 0.018609 d21(2,11)
 + 0.000343 d21(2,12) + 0.000343 d21(2,13) + 0.01918 d21(2,14)
 + 0.03094 d21(2,15) + 0.001827 d21(2,16) + 0.000343 d21(2,18)
 + 0.001827 d21(2,19) + 0.001941 d21(2,20) <= 0.6
 C5_2(0): + d22(0,0) <= 0.6
 C5_2(1): + 0.546751 d22(1,1) + 0.396849 d22(1,2) + 0.05229 d22(1,3)
 + 0.004111 d22(1,4) <= 0.6
 C5_2(2): + 0.453933 d22(2,5) + 0.091905 d22(2,6) + 0.000913 d22(2,7)
 + 0.092362 d22(2,9) + 0.285535 d22(2,10) + 0.018609 d22(2,11)
 + 0.000343 d22(2,12) + 0.000343 d22(2,13) + 0.01918 d22(2,14)
 + 0.03094 d22(2,15) + 0.001827 d22(2,16) + 0.000343 d22(2,18)
 + 0.001827 d22(2,19) + 0.001941 d22(2,20) <= 0.6
 C6_1: - 0.453933 STE(2,5) - 0.091905 STE(2,6) - 0.000913 STE(2,7)
 - 0.092362 STE(2,9) - 0.285535 STE(2,10) - 0.018609 STE(2,11)
 - 0.000343 STE(2,12) - 0.000343 STE(2,13) - 0.01918 STE(2,14)
 - 0.03094 STE(2,15) - 0.001827 STE(2,16) - 0.000343 STE(2,18)
 - 0.001827 STE(2,19) - 0.001941 STE(2,20) <= -12600
 C6_2: + 0.453933 STE(2,5) + 0.091905 STE(2,6) + 0.000913 STE(2,7)
 + 0.092362 STE(2,9) + 0.285535 STE(2,10) + 0.018609 STE(2,11)
 + 0.000343 STE(2,12) + 0.000343 STE(2,13) + 0.01918 STE(2,14)
 + 0.03094 STE(2,15) + 0.001827 STE(2,16) + 0.000343 STE(2,18)
 + 0.001827 STE(2,19) + 0.001941 STE(2,20) <= 18900

Bounds
 0 <= d11(0,0) <= 1
 0 <= d11(1,1) <= 1
 0 <= d11(1,2) <= 1
 0 <= d11(1,3) <= 1
 0 <= d11(1,4) <= 1
 0 <= d11(2,5) <= 1
 0 <= d11(2,6) <= 1
 0 <= d11(2,7) <= 1
 0 <= d11(2,8) <= 1
 0 <= d11(2,9) <= 1
 0 <= d11(2,10) <= 1
 0 <= d11(2,11) <= 1
 0 <= d11(2,12) <= 1
 0 <= d11(2,13) <= 1
 0 <= d11(2,14) <= 1
 0 <= d11(2,15) <= 1
 0 <= d11(2,16) <= 1
 0 <= d11(2,17) <= 1
 0 <= d11(2,18) <= 1
 0 <= d11(2,19) <= 1
 0 <= d11(2,20) <= 1
 0 <= d12(0,0) <= 1
 0 <= d12(1,1) <= 1
 0 <= d12(1,2) <= 1
 0 <= d12(1,3) <= 1
 0 <= d12(1,4) <= 1
 0 <= d12(2,5) <= 1
 0 <= d12(2,6) <= 1
 0 <= d12(2,7) <= 1
 0 <= d12(2,8) <= 1
 0 <= d12(2,9) <= 1
 0 <= d12(2,10) <= 1
 0 <= d12(2,11) <= 1
 0 <= d12(2,12) <= 1
 0 <= d12(2,13) <= 1
 0 <= d12(2,14) <= 1
 0 <= d12(2,15) <= 1
 0 <= d12(2,16) <= 1
 0 <= d12(2,17) <= 1
 0 <= d12(2,18) <= 1
 0 <= d12(2,19) <= 1
 0 <= d12(2,20) <= 1
 0 <= d21(0,0) <= 1
 0 <= d21(1,1) <= 1
 0 <= d21(1,2) <= 1
 0 <= d21(1,3) <= 1
 0 <= d21(1,4) <= 1
 0 <= d21(2,5) <= 1
 0 <= d21(2,6) <= 1
 0 <= d21(2,7) <= 1
 0 <= d21(2,8) <= 1
 0 <= d21(2,9) <= 1
 0 <= d21(2,10) <= 1
 0 <= d21(2,11) <= 1
 0 <= d21(2,12) <= 1
 0 <= d21(2,13) <= 1
 0 <= d21(2,14) <= 1
 0 <= d21(2,15) <= 1
 0 <= d21(2,16) <= 1
 0 <= d21(2,17) <= 1
 0 <= d21(2,18) <= 1
 0 <= d21(2,19) <= 1
 0 <= d21(2,20) <= 1
 0 <= d22(0,0) <= 1
 0 <= d22(1,1) <= 1
 0 <= d22(1,2) <= 1
 0 <= d22(1,3) <= 1
 0 <= d22(1,4) <= 1
 0 <= d22(2,5) <= 1
 0 <= d22(2,6) <= 1
 0 <= d22(2,7) <= 1
 0 <= d22(2,8) <= 1
 0 <= d22(2,9) <= 1
 0 <= d22(2,10) <= 1
 0 <= d22(2,11) <= 1
 0 <= d22(2,12) <= 1
 0 <= d22(2,13) <= 1
 0 <= d22(2,14) <= 1
 0 <= d22(2,15) <= 1
 0 <= d22(2,16) <= 1
 0 <= d22(2,17) <= 1
 0 <= d22(2,18) <= 1
 0 <= d22(2,19) <= 1
 0 <= d22(2,20) <= 1
 STE(1,1) free
 STE(0,0) free
 STE(1,2) free
 STE(1,3) free
 STE(1,4) free
 STE(2,5) free
 STE(2,6) free
 STE(2,7) free
 STE(2,8) free
 STE(2,9) free
 STE(2,10) free
 STE(2,11) free
 STE(2,12) free
 STE(2,13) free
 STE(2,14) free
 STE(2,15) free
 STE(2,16) free
 STE(2,17) free
 STE(2,18) free
 STE(2,19) free
 STE(2,20) free

Generals
 d11(0,0)
 d11(1,1)
 d11(1,2)
 d11(1,3)
 d11(1,4)
 d11(2,5)
 d11(2,6)
 d11(2,7)
 d11(2,8)
 d11(2,9)
 d11(2,10)
 d11(2,11)
 d11(2,12)
 d11(2,13)
 d11(2,14)
 d11(2,15)
 d11(2,16)
 d11(2,17)
 d11(2,18)
 d11(2,19)
 d11(2,20)
 d12(0,0)
 d12(1,1)
 d12(1,2)
 d12(1,3)
 d12(1,4)
 d12(2,5)
 d12(2,6)
 d12(2,7)
 d12(2,8)
 d12(2,9)
 d12(2,10)
 d12(2,11)
 d12(2,12)
 d12(2,13)
 d12(2,14)
 d12(2,15)
 d12(2,16)
 d12(2,17)
 d12(2,18)
 d12(2,19)
 d12(2,20)
 d21(0,0)
 d21(1,1)
 d21(1,2)
 d21(1,3)
 d21(1,4)
 d21(2,5)
 d21(2,6)
 d21(2,7)
 d21(2,8)
 d21(2,9)
 d21(2,10)
 d21(2,11)
 d21(2,12)
 d21(2,13)
 d21(2,14)
 d21(2,15)
 d21(2,16)
 d21(2,17)
 d21(2,18)
 d21(2,19)
 d21(2,20)
 d22(0,0)
 d22(1,1)
 d22(1,2)
 d22(1,3)
 d22(1,4)
 d22(2,5)
 d22(2,6)
 d22(2,7)
 d22(2,8)
 d22(2,9)
 d22(2,10)
 d22(2,11)
 d22(2,12)
 d22(2,13)
 d22(2,14)
 d22(2,15)
 d22(2,16)
 d22(2,17)
 d22(2,18)
 d22(2,19)
 d22(2,20)

End
