water_flow/jikken/120202_dat1.sol
solution status: optimal solution found
objective value:                     119480.296767327
d11(0,0)                                            1 	(obj:0)
d11(2,5)                                            1 	(obj:0)
d11(2,6)                                            1 	(obj:0)
d11(2,7)                                            1 	(obj:0)
d11(2,9)                                            1 	(obj:0)
d11(2,10)                                           1 	(obj:0)
d11(2,11)                                           1 	(obj:0)
d11(2,13)                                           1 	(obj:0)
d11(2,14)                                           1 	(obj:0)
d11(2,15)                                           1 	(obj:0)
d11(2,17)                                           1 	(obj:0)
d11(2,18)                                           1 	(obj:0)
d11(2,19)                                           1 	(obj:0)
d12(1,2)                                            1 	(obj:0)
d12(1,3)                                            1 	(obj:0)
d12(1,4)                                            1 	(obj:0)
d12(2,8)                                            1 	(obj:0)
d12(2,12)                                           1 	(obj:0)
d12(2,16)                                           1 	(obj:0)
d12(2,20)                                           1 	(obj:0)
d22(1,2)                                            1 	(obj:0)
d22(1,3)                                            1 	(obj:0)
d22(1,4)                                            1 	(obj:0)
d22(2,8)                                            1 	(obj:0)
d22(2,12)                                           1 	(obj:0)
d22(2,15)                                           1 	(obj:0)
d22(2,16)                                           1 	(obj:0)
d22(2,17)                                           1 	(obj:0)
d22(2,18)                                           1 	(obj:0)
d22(2,19)                                           1 	(obj:0)
d22(2,20)                                           1 	(obj:0)
y2(2,12)                             2679.74274131525 	(obj:0)
y2(2,16)                             2679.74274131525 	(obj:0)
y2(2,20)                             2679.74274131525 	(obj:0)
STE(1,1)                                        22050 	(obj:0)
STE(0,0)                                        22050 	(obj:0)
STE(1,2)                             23404.4916785714 	(obj:0)
STE(1,3)                             29795.4409285715 	(obj:0)
STE(1,4)                             34925.9824285714 	(obj:0)
STE(2,5)                             10441.6726432341 	(obj:0)
STE(2,6)                             12030.5559765675 	(obj:0)
STE(2,7)                              19505.350421012 	(obj:0)
STE(2,8)                             24595.7556042495 	(obj:0)
STE(2,9)                             11796.1643218056 	(obj:0)
STE(2,10)                            13385.0476551389 	(obj:0)
STE(2,11)                            20859.8420995834 	(obj:0)
STE(2,12)                            25950.2472828209 	(obj:0)
STE(2,13)                            18187.1135718056 	(obj:0)
STE(2,14)                            19775.9969051389 	(obj:0)
STE(2,15)                            27250.7913495835 	(obj:0)
STE(2,16)                             32341.196532821 	(obj:0)
STE(2,17)                            23317.6550718056 	(obj:0)
STE(2,18)                            24906.5384051389 	(obj:0)
STE(2,19)                            32381.3328495834 	(obj:0)
STE(2,20)                            37471.7380328209 	(obj:0)
y1(2,9)                              10447.4946210893 	(obj:0)
y1(2,10)                             9017.49962108927 	(obj:0)
y1(2,11)                             2290.18462108921 	(obj:0)
y1(2,13)                             10447.4946210893 	(obj:0)
y1(2,14)                             9017.49962108928 	(obj:0)
y1(2,15)                             2290.18462108921 	(obj:0)
y1(2,17)                             10447.4946210893 	(obj:0)
y1(2,18)                             9017.49962108927 	(obj:0)
y1(2,19)                             2290.18462108921 	(obj:0)
WB(1)                                1051.51095645565 	(obj:0)
AVE(1)                                 1153.024373585 	(obj:0)
AVE(2)                                 1153.179235705 	(obj:0)
WG(1)                                 101.51341712935 	(obj:10)
WG(2)                                  1153.179235705 	(obj:11)
BG(1)                                3.84372572779309 	(obj:10)
BG(2)                                9612.88670418201 	(obj:11)
y1(2,5)                              10447.4946210893 	(obj:0)
y1(2,6)                              9017.49962108927 	(obj:0)
y1(2,7)                              2290.18462108921 	(obj:0)
y2(1,2)                              1425.78071428571 	(obj:0)
y2(1,3)                              8153.09571428577 	(obj:0)
y2(1,4)                              13553.6657142857 	(obj:0)
y2(2,8)                              2679.74274131525 	(obj:0)
